NAME:36_18
TYPE: TSP
DIMENSION: 36
EDGE_WEIGHT_TYPE: EXPLICIT
EDGE_WEIGHT_FORMAT: UPPER_ROW
EDGE_WEIGHT_SECTION
600 600 600 600 600 600 600 600 600 600 600 600 600 600 600 600 600 0 270 274 237 274 274 248 250 250 254 258 258 262 262 262 266 266 266 600 600 600 600 600 600 600 600 600 600 600 600 600 600 600 600 226 0 204 219 252 204 226 224 220 220 220 216 216 212 208 208 204 200 600 600 600 600 600 600 600 600 600 600 600 600 600 600 600 226 248 0 215 248 200 226 228 228 232 236 236 240 240 240 244 244 244 600 600 600 600 600 600 600 600 600 600 600 600 600 600 263 285 237 0 285 237 263 265 265 269 273 273 277 277 277 281 281 281 600 600 600 600 600 600 600 600 600 600 600 600 600 226 200 200 215 0 200 226 224 220 220 220 216 216 212 208 208 204 200 600 600 600 600 600 600 600 600 600 600 600 600 226 292 252 215 300 0 274 272 272 276 280 280 284 284 284 288 288 288 600 600 600 600 600 600 600 600 600 600 600 200 222 226 237 226 226 0 202 202 206 210 210 214 214 214 218 218 218 600 600 600 600 600 600 600 600 600 600 202 220 224 239 228 224 202 0 200 204 208 208 212 212 212 216 216 216 600 600 600 600 600 600 600 600 600 206 220 224 239 232 224 206 204 0 204 208 208 212 212 212 216 216 216 600 600 600 600 600 600 600 600 206 216 220 235 232 220 206 204 200 0 204 204 208 208 208 212 212 212 600 600 600 600 600 600 600 206 212 216 231 232 216 206 204 200 200 0 200 204 204 204 208 208 208 600 600 600 600 600 600 210 212 216 231 236 216 210 208 204 204 204 0 204 204 204 208 208 208 600 600 600 600 600 210 208 212 227 236 212 210 208 204 204 204 200 0 200 200 204 204 204 600 600 600 600 214 208 212 227 240 212 214 212 208 208 208 204 204 0 200 204 204 204 600 600 600 218 208 212 227 244 212 218 216 212 212 212 208 208 204 0 204 204 204 600 600 218 204 208 223 244 208 218 216 212 212 212 208 208 204 200 0 200 200 600 222 204 208 223 248 208 222 220 216 216 216 212 212 208 204 204 0 200 226 204 208 223 252 208 226 224 220 220 220 216 216 212 208 208 204 0 600 600 600 600 600 600 600 600 600 600 600 600 600 600 600 600 600 600 600 600 600 600 600 600 600 600 600 600 600 600 600 600 600 600 600 600 600 600 600 600 600 600 600 600 600 600 600 600 600 600 600 600 600 600 600 600 600 600 600 600 600 600 600 600 600 600 600 600 600 600 600 600 600 600 600 600 600 600 600 600 600 600 600 600 600 600 600 600 600 600 600 600 600 600 600 600 600 600 600 600 600 600 600 600 600 600 600 600 600 600 600 600 600 600 600 600 600 600 600 600 600 600 600 600 600 600 600 600 600 600 600 600 600 600 600 600 600 600 600 600 600 600 600 600 600 600 600 600 600 600 600 600 600 